c Reduced graph for p29_2 generated by Cyril Grelier
p edge 21 75
e 1 9
e 1 11
e 1 18
e 1 19
e 1 21
e 2 3
e 2 4
e 2 5
e 2 6
e 2 8
e 2 9
e 2 10
e 2 14
e 2 15
e 2 17
e 2 20
e 2 21
e 3 6
e 3 8
e 3 10
e 3 14
e 3 15
e 3 17
e 3 18
e 3 20
e 3 21
e 4 5
e 4 9
e 5 9
e 6 8
e 6 10
e 6 14
e 6 15
e 6 17
e 6 20
e 6 21
e 7 11
e 7 12
e 7 13
e 7 16
e 7 17
e 8 10
e 8 14
e 8 15
e 8 17
e 8 20
e 8 21
e 9 11
e 9 18
e 9 19
e 10 14
e 10 15
e 10 17
e 10 19
e 10 20
e 10 21
e 11 16
e 11 17
e 11 18
e 11 19
e 12 13
e 12 14
e 13 20
e 14 15
e 14 17
e 14 20
e 14 21
e 15 17
e 15 20
e 15 21
e 16 17
e 17 20
e 17 21
e 18 19
e 20 21
